1 -1 -2 0
1 1 -3 0
1 1 -4 0
1 -1 5 0
1 -1 6 0
1 2 -3 0
1 2 -1 0
1 2 5 0
1 2 -7 0
1 8 -9 0
1 -8 -10 0
1 8 3 0
1 -8 4 0
1 -8 11 0
1 -8 -12 0
1 -8 13 0
1 -8 5 0
1 8 7 0
1 10 -14 0
1 -10 9 0
1 -10 15 0
1 -10 -3 0
1 10 4 0
1 10 -11 0
1 -10 12 0
1 -10 -8 0
1 10 5 0
1 -10 -7 0
1 -4 16 0
1 4 -17 0
1 -4 18 0
1 4 10 0
1 4 -2 0
1 -4 19 0
1 -4 20 0
1 -4 21 0
1 4 8 0
1 4 -7 0
1 -7 22 0
1 -7 -17 0
1 7 18 0
1 7 -2 0
1 7 -4 0
1 7 -20 0
1 7 -21 0
1 7 8 0
1 -3 -16 0
1 -3 10 0
1 3 -2 0
1 3 -23 0
1 3 -24 0
1 -3 -8 0
1 3 1 0
1 -3 5 0
1 5 -16 0
1 5 -25 0
1 5 -26 0
1 -5 10 0
1 5 -2 0
1 5 -3 0
1 5 -27 0
1 5 28 0
1 -5 1 0
1 -5 29 0
1 21 -14 0
1 21 -9 0
1 21 -18 0
1 -21 -4 0
1 -21 12 0
1 -21 28 0
1 -21 -7 0
1 18 9 0
1 18 -26 0
1 -18 4 0
1 -18 -11 0
1 18 12 0
1 18 -21 0
1 18 -7 0
1 -20 -14 0
1 20 -9 0
1 -20 -17 0
1 20 -30 0
1 -20 -31 0
1 20 4 0
1 20 11 0
1 20 -12 0
1 20 32 0
1 20 33 0
1 20 7 0
1 17 14 0
1 -17 -9 0
1 17 25 0
1 -17 31 0
1 17 -4 0
1 17 11 0
1 -17 12 0
1 17 20 0
1 -17 -32 0
1 -17 33 0
1 -17 7 0
1 12 34 0
1 -12 9 0
1 12 -17 0
1 -12 -18 0
1 -12 -10 0
1 -12 35 0
1 12 -36 0
1 12 -37 0
1 -12 -20 0
1 -12 8 0
1 12 38 0
1 9 -34 0
1 9 17 0
1 9 -10 0
1 9 -35 0
1 -9 36 0
1 9 -12 0
1 -9 -21 0
1 9 8 0
1 -11 14 0
1 -11 -39 0
1 11 -16 0
1 11 17 0
1 -11 -18 0
1 -11 10 0
1 -11 -35 0
1 -11 -40 0
1 11 -20 0
1 -11 21 0
1 -11 -8 0
1 -14 -41 0
1 14 -17 0
1 -14 18 0
1 14 10 0
1 -14 35 0
1 -14 11 0
1 -14 42 0
1 -14 20 0
1 14 21 0
1 -14 8 0
1 -14 -38 0
1 -43 -44 0
1 -43 9 0
1 43 -30 0
1 -43 31 0
1 -43 12 0
1 -43 27 0
1 -43 -32 0
1 44 16 0
1 44 -30 0
1 44 31 0
1 -44 -43 0
1 44 -12 0
1 -44 -32 0
1 -44 -33 0
1 -36 34 0
1 36 9 0
1 36 30 0
1 36 -31 0
1 36 -42 0
1 36 12 0
1 36 -33 0
1 34 -39 0
1 34 -30 0
1 -34 12 0
1 34 -33 0
1 33 -34 0
1 33 17 0
1 -33 -31 0
1 33 -45 0
1 33 -36 0
1 33 -20 0
1 33 46 0
1 33 47 0
1 -31 -17 0
1 -31 48 0
1 -31 -36 0
1 31 43 0
1 31 20 0
1 31 33 0
1 -32 44 0
1 32 17 0
1 32 30 0
1 32 -45 0
1 32 49 0
1 -32 -35 0
1 -32 36 0
1 -32 -43 0
1 -32 20 0
1 32 50 0
1 32 51 0
1 -32 38 0
1 -30 -34 0
1 -30 17 0
1 30 -52 0
1 30 45 0
1 -30 36 0
1 -30 -20 0
1 30 47 0
1 -30 38 0
1 -6 53 0
1 -6 -54 0
1 6 55 0
1 6 56 0
1 6 57 0
1 6 -1 0
1 55 -54 0
1 -55 -58 0
1 -55 6 0
1 -13 -54 0
1 13 -59 0
1 -13 60 0
1 -13 15 0
1 13 56 0
1 -13 -57 0
1 13 -61 0
1 13 62 0
1 -13 -8 0
1 13 -63 0
1 -15 53 0
1 -15 -54 0
1 -15 -59 0
1 -15 -60 0
1 15 -10 0
1 15 -64 0
1 15 56 0
1 15 -57 0
1 15 -62 0
1 -15 -13 0
1 -54 -65 0
1 54 -66 0
1 54 -26 0
1 -54 55 0
1 -54 -57 0
1 54 -13 0
1 54 -6 0
1 -57 65 0
1 -57 26 0
1 -57 15 0
1 -57 -55 0
1 -57 -67 0
1 -57 68 0
1 -57 -24 0
1 -57 28 0
1 57 -13 0
1 57 -6 0
1 -53 69 0
1 -53 -65 0
1 -53 70 0
1 -53 55 0
1 -53 68 0
1 53 -71 0
1 -53 -6 0
1 -56 -53 0
1 -56 65 0
1 56 70 0
1 56 -72 0
1 56 55 0
1 56 -73 0
1 56 74 0
1 -56 71 0
1 -56 -13 0
1 28 -54 0
1 28 26 0
1 -28 -3 0
1 -28 -57 0
1 -28 -61 0
1 -28 -21 0
1 26 -54 0
1 -26 -59 0
1 -26 18 0
1 26 60 0
1 -26 -72 0
1 -26 -3 0
1 26 -57 0
1 26 -62 0
1 26 28 0
1 -26 5 0
1 -24 54 0
1 24 25 0
1 -24 59 0
1 24 60 0
1 24 -3 0
1 -24 -57 0
1 24 20 0
1 -24 62 0
1 -24 -75 0
1 -24 5 0
1 -25 -62 0
1 25 59 0
1 -25 -70 0
1 -25 -60 0
1 -25 -3 0
1 25 61 0
1 -25 76 0
1 25 -75 0
1 -25 5 0
1 -60 -77 0
1 -60 -62 0
1 -60 -16 0
1 -60 25 0
1 60 -26 0
1 60 -78 0
1 -60 15 0
1 -60 42 0
1 60 -27 0
1 60 -28 0
1 -60 13 0
1 -62 77 0
1 62 39 0
1 -62 16 0
1 -62 25 0
1 -62 26 0
1 -62 -60 0
1 62 -79 0
1 -62 42 0
1 -62 -24 0
1 -62 80 0
1 62 28 0
1 62 -13 0
1 -59 -77 0
1 -59 81 0
1 59 65 0
1 59 25 0
1 -59 -82 0
1 -59 26 0
1 -59 -15 0
1 59 79 0
1 -59 83 0
1 -59 -68 0
1 -59 24 0
1 59 28 0
1 -59 -13 0
1 61 77 0
1 61 -65 0
1 -61 59 0
1 61 26 0
1 -61 15 0
1 61 83 0
1 -61 68 0
1 -61 24 0
1 -61 -84 0
1 -61 28 0
1 -61 13 0
1 27 14 0
1 27 16 0
1 27 85 0
1 27 3 0
1 27 -4 0
1 -27 11 0
1 -27 68 0
1 -27 62 0
1 27 76 0
1 -27 -75 0
1 -27 7 0
1 -16 -65 0
1 16 60 0
1 -16 -85 0
1 16 -86 0
1 16 -3 0
1 -16 4 0
1 -16 -11 0
1 16 27 0
1 16 -62 0
1 16 76 0
1 16 -75 0
1 16 -5 0
1 -42 14 0
1 -42 85 0
1 -42 86 0
1 42 -23 0
1 42 -19 0
1 -42 11 0
1 -42 36 0
1 42 -83 0
1 42 -62 0
1 -42 -76 0
1 42 -75 0
1 42 -29 0
1 -39 22 0
1 39 -14 0
1 -39 -81 0
1 39 60 0
1 -39 -85 0
1 -39 -86 0
1 39 -23 0
1 -39 -19 0
1 -39 11 0
1 39 42 0
1 39 -75 0
1 86 39 0
1 86 16 0
1 -86 -25 0
1 86 -87 0
1 86 49 0
1 -86 -35 0
1 -86 42 0
1 86 24 0
1 -86 -75 0
1 -86 88 0
1 86 -51 0
1 86 38 0
1 75 25 0
1 75 -86 0
1 75 -87 0
1 -75 -35 0
1 -75 89 0
1 75 -42 0
1 -75 -27 0
1 75 -24 0
1 -75 -88 0
1 75 38 0
1 -85 77 0
1 85 -39 0
1 -85 -16 0
1 85 -25 0
1 85 90 0
1 85 87 0
1 85 -91 0
1 85 42 0
1 -85 -27 0
1 85 -24 0
1 85 -76 0
1 -85 88 0
1 -85 -92 0
1 76 -39 0
1 -76 -16 0
1 76 25 0
1 -76 85 0
1 -76 87 0
1 -76 91 0
1 -76 27 0
1 -76 24 0
1 76 93 0
1 -76 88 0
1 35 -14 0
1 35 -9 0
1 35 -30 0
1 -35 86 0
1 35 23 0
1 35 79 0
1 35 -19 0
1 35 12 0
1 -35 -32 0
1 -35 75 0
1 35 29 0
1 38 77 0
1 -38 -14 0
1 -38 -22 0
1 -38 9 0
1 38 -30 0
1 38 -86 0
1 38 -23 0
1 -38 -35 0
1 38 11 0
1 -38 12 0
1 38 -29 0
1 -49 22 0
1 -49 -41 0
1 -49 -94 0
1 49 30 0
1 -49 -86 0
1 49 91 0
1 -49 -19 0
1 49 37 0
1 49 75 0
1 49 51 0
1 49 -29 0
1 -51 22 0
1 -51 41 0
1 51 30 0
1 -51 86 0
1 -51 -23 0
1 51 -19 0
1 -51 37 0
1 51 75 0
1 -19 -22 0
1 19 -39 0
1 19 95 0
1 19 96 0
1 19 49 0
1 19 4 0
1 -19 -97 0
1 -19 98 0
1 19 99 0
1 -19 -47 0
1 19 51 0
1 -22 96 0
1 -22 -45 0
1 22 -49 0
1 22 -42 0
1 -22 98 0
1 -22 99 0
1 22 -47 0
1 -22 51 0
1 23 -39 0
1 23 95 0
1 23 100 0
1 -23 87 0
1 23 101 0
1 23 42 0
1 -23 98 0
1 23 -102 0
1 23 88 0
1 -23 -51 0
1 23 29 0
1 23 38 0
1 -29 39 0
1 29 95 0
1 -29 100 0
1 29 49 0
1 -29 -35 0
1 29 -42 0
1 -29 -5 0
1 -29 -98 0
1 -29 -102 0
1 -29 88 0
1 -29 -51 0
1 -29 103 0
1 -29 38 0
1 45 -22 0
1 -45 41 0
1 45 30 0
1 45 94 0
1 45 -31 0
1 -45 -87 0
1 -45 19 0
1 -45 -40 0
1 45 -37 0
1 -45 -32 0
1 -45 -47 0
1 -47 -22 0
1 -47 41 0
1 47 -19 0
1 -47 40 0
1 -47 37 0
1 47 32 0
1 -47 -33 0
1 47 -88 0
1 -96 -52 0
1 -96 99 0
1 -96 -48 0
1 -96 100 0
1 -96 -19 0
1 -96 37 0
1 96 50 0
1 96 -46 0
1 -99 94 0
1 99 48 0
1 -99 40 0
1 -99 37 0
1 99 -50 0
1 99 -46 0
1 37 -104 0
1 37 -94 0
1 37 105 0
1 37 45 0
1 37 -49 0
1 -37 -106 0
1 -37 -12 0
1 37 107 0
1 -37 -99 0
1 -37 47 0
1 37 -51 0
1 -94 9 0
1 -94 108 0
1 -94 109 0
1 94 -105 0
1 94 -45 0
1 -94 110 0
1 -94 37 0
1 94 107 0
1 94 99 0
1 -94 47 0
1 94 51 0
1 40 41 0
1 40 104 0
1 -40 -111 0
1 40 -95 0
1 40 -96 0
1 40 -49 0
1 -40 -11 0
1 40 106 0
1 40 112 0
1 -40 -113 0
1 -40 98 0
1 -40 47 0
1 -40 51 0
1 -41 -14 0
1 41 -114 0
1 41 -104 0
1 41 111 0
1 -41 -95 0
1 -41 96 0
1 41 45 0
1 -41 -49 0
1 -41 40 0
1 -41 -113 0
1 41 -98 0
1 41 -99 0
1 41 47 0
1 -41 51 0
1 -105 52 0
1 -105 48 0
1 -105 -50 0
1 -105 -37 0
1 105 107 0
1 -105 46 0
1 107 52 0
1 107 105 0
1 -107 37 0
1 -107 50 0
1 107 98 0
1 107 46 0
1 109 94 0
1 -109 -52 0
1 109 -111 0
1 109 -37 0
1 -109 46 0
1 110 -94 0
1 110 109 0
1 110 -52 0
1 110 48 0
1 -110 37 0
1 -110 -113 0
1 -110 50 0
1 -110 46 0
1 -46 115 0
1 46 105 0
1 -46 -48 0
1 46 96 0
1 -46 116 0
1 46 110 0
1 -46 -107 0
1 -46 33 0
1 -46 99 0
1 46 -117 0
1 -48 -115 0
1 -48 109 0
1 -48 -31 0
1 -48 -105 0
1 48 -116 0
1 48 110 0
1 -48 -107 0
1 -48 -99 0
1 -50 115 0
1 50 118 0
1 50 -104 0
1 50 109 0
1 50 -52 0
1 50 -116 0
1 -50 -119 0
1 -50 106 0
1 50 -32 0
1 -50 107 0
1 -50 120 0
1 50 -99 0
1 -52 115 0
1 -52 118 0
1 52 104 0
1 -52 -30 0
1 52 -109 0
1 -52 121 0
1 -52 -105 0
1 -52 -96 0
1 -52 -116 0
1 52 -119 0
1 -52 50 0
1 -52 -106 0
1 -52 110 0
1 -52 -107 0
1 52 -99 0
1 -122 -123 0
1 -122 124 0
1 122 6 0
1 -58 125 0
1 -58 -55 0
1 -58 -124 0
1 -58 126 0
1 -58 122 0
1 63 -123 0
1 63 -127 0
1 63 64 0
1 63 -128 0
1 63 -124 0
1 -63 126 0
1 63 129 0
1 63 13 0
1 64 -123 0
1 -64 127 0
1 -64 15 0
1 64 -128 0
1 64 -124 0
1 64 -130 0
1 64 126 0
1 64 -129 0
1 -64 -63 0
1 126 70 0
1 126 125 0
1 -126 72 0
1 -126 64 0
1 126 74 0
1 126 -131 0
1 126 71 0
1 -126 63 0
1 -126 122 0
1 125 -126 0
1 125 70 0
1 125 -132 0
1 -125 -72 0
1 125 64 0
1 125 -74 0
1 -125 -71 0
1 125 63 0
1 -125 -122 0
1 124 133 0
1 -124 123 0
1 -124 64 0
1 124 -58 0
1 124 -122 0
1 -123 134 0
1 123 -64 0
1 -123 -58 0
1 123 -124 0
1 123 63 0
1 -71 53 0
1 -71 -125 0
1 71 -128 0
1 71 56 0
1 71 126 0
1 -71 129 0
1 -72 53 0
1 72 -125 0
1 -72 26 0
1 72 127 0
1 72 128 0
1 72 129 0
1 -72 56 0
1 72 -126 0
1 -72 71 0
1 74 53 0
1 74 -70 0
1 -74 -125 0
1 -74 -127 0
1 -74 135 0
1 74 -56 0
1 74 24 0
1 74 126 0
1 -74 -129 0
1 -74 130 0
1 70 -136 0
1 -70 53 0
1 -70 -126 0
1 70 25 0
1 70 127 0
1 70 -128 0
1 -70 -137 0
1 70 -135 0
1 -70 -74 0
1 -70 -129 0
1 -70 130 0
1 -130 -138 0
1 -130 -70 0
1 -130 -72 0
1 130 -128 0
1 -130 -139 0
1 -130 -83 0
1 130 68 0
1 -130 74 0
1 -130 -71 0
1 -130 -63 0
1 -130 -140 0
1 128 138 0
1 -128 81 0
1 -128 -65 0
1 -128 70 0
1 128 72 0
1 128 64 0
1 -128 141 0
1 -128 -139 0
1 128 -83 0
1 128 -130 0
1 -128 74 0
1 -128 71 0
1 129 -138 0
1 -129 -70 0
1 129 72 0
1 129 127 0
1 129 64 0
1 129 139 0
1 -129 -74 0
1 129 71 0
1 129 -142 0
1 127 70 0
1 127 -72 0
1 -127 64 0
1 -127 -129 0
1 -127 139 0
1 127 -74 0
1 -127 71 0
1 -127 63 0
1 68 136 0
1 68 -53 0
1 -68 -54 0
1 68 65 0
1 -68 -128 0
1 68 137 0
1 68 135 0
1 -68 -56 0
1 -68 57 0
1 -68 61 0
1 68 -27 0
1 -68 -130 0
1 68 -143 0
1 65 -136 0
1 65 53 0
1 65 -16 0
1 65 -54 0
1 -65 -59 0
1 65 -128 0
1 -65 137 0
1 65 -135 0
1 65 56 0
1 65 -57 0
1 65 68 0
1 -65 -130 0
1 65 143 0
1 83 66 0
1 -83 137 0
1 -83 -135 0
1 83 73 0
1 83 -67 0
1 83 -61 0
1 83 130 0
1 83 143 0
1 81 136 0
1 -81 -39 0
1 81 66 0
1 -81 -59 0
1 -81 128 0
1 -81 137 0
1 81 135 0
1 81 73 0
1 81 83 0
1 -81 61 0
1 81 67 0
1 81 130 0
1 81 -143 0
1 136 -81 0
1 136 65 0
1 136 144 0
1 -136 91 0
1 -136 -135 0
1 -136 79 0
1 136 -83 0
1 -136 74 0
1 136 -145 0
1 -135 77 0
1 135 -81 0
1 -135 65 0
1 135 70 0
1 135 144 0
1 -135 -91 0
1 135 -146 0
1 135 79 0
1 135 83 0
1 -135 68 0
1 135 -74 0
1 135 -145 0
1 -135 -92 0
1 143 138 0
1 -143 81 0
1 -143 65 0
1 -143 -147 0
1 143 -137 0
1 143 144 0
1 -143 148 0
1 143 139 0
1 143 83 0
1 143 68 0
1 -143 74 0
1 143 -145 0
1 143 149 0
1 137 -138 0
1 137 81 0
1 137 70 0
1 -137 -144 0
1 -137 -150 0
1 -137 -148 0
1 -137 -83 0
1 -137 -68 0
1 137 -74 0
1 137 145 0
1 -137 143 0
1 -79 77 0
1 79 -136 0
1 -79 59 0
1 79 -60 0
1 -79 -85 0
1 79 135 0
1 79 35 0
1 -79 -139 0
1 79 -73 0
1 79 67 0
1 79 -61 0
1 -79 -76 0
1 77 136 0
1 -77 -69 0
1 77 -66 0
1 -77 59 0
1 77 -60 0
1 77 85 0
1 -77 135 0
1 77 79 0
1 -77 73 0
1 -77 67 0
1 -77 61 0
1 77 -62 0
1 77 -38 0
1 -91 136 0
1 91 -69 0
1 -91 66 0
1 -91 -82 0
1 -91 -78 0
1 91 85 0
1 91 -49 0
1 91 135 0
1 -91 -148 0
1 91 73 0
1 -91 67 0
1 91 -84 0
1 91 -80 0
1 91 -92 0
1 -92 136 0
1 -92 -69 0
1 -92 66 0
1 -92 82 0
1 92 -78 0
1 -92 85 0
1 92 -91 0
1 92 -135 0
1 92 73 0
1 92 67 0
1 -92 -84 0
1 -92 80 0
1 92 -76 0
1 66 77 0
1 66 -81 0
1 -66 54 0
1 -66 -151 0
1 -66 -100 0
1 -66 87 0
1 -66 91 0
1 66 79 0
1 66 83 0
1 -66 -152 0
1 66 -102 0
1 66 88 0
1 -66 92 0
1 67 77 0
1 -67 81 0
1 67 -66 0
1 67 87 0
1 -67 91 0
1 -67 -79 0
1 67 -57 0
1 67 -83 0
1 -67 153 0
1 -67 -152 0
1 -67 -102 0
1 67 88 0
1 -67 92 0
1 -69 77 0
1 69 -53 0
1 -69 81 0
1 69 -154 0
1 69 -151 0
1 69 144 0
1 69 -91 0
1 -69 79 0
1 -69 73 0
1 69 -83 0
1 69 155 0
1 69 -92 0
1 73 77 0
1 73 81 0
1 -73 -156 0
1 73 -144 0
1 -73 -91 0
1 -73 79 0
1 -73 157 0
1 -73 -83 0
1 73 152 0
1 -73 -155 0
1 -73 -145 0
1 -73 92 0
1 -87 66 0
1 87 -82 0
1 87 -78 0
1 -87 -85 0
1 87 -45 0
1 87 86 0
1 -87 -144 0
1 87 -23 0
1 87 80 0
1 87 76 0
1 -87 -88 0
1 -87 29 0
1 88 -66 0
1 -88 -82 0
1 88 85 0
1 88 75 0
1 -88 -86 0
1 88 -87 0
1 -88 -23 0
1 88 84 0
1 -88 -80 0
1 88 76 0
1 88 -47 0
1 -88 145 0
1 88 29 0
1 100 66 0
1 100 -93 0
1 -100 -82 0
1 100 -96 0
1 100 -90 0
1 100 156 0
1 -100 158 0
1 -100 -23 0
1 -100 67 0
1 100 84 0
1 -100 80 0
1 100 102 0
1 102 82 0
1 102 78 0
1 -102 100 0
1 102 -90 0
1 102 -158 0
1 -102 67 0
1 -102 93 0
1 -102 -89 0
1 102 29 0
1 -78 159 0
1 78 111 0
1 78 60 0
1 78 95 0
1 -78 100 0
1 -78 -87 0
1 78 98 0
1 78 102 0
1 80 159 0
1 -80 111 0
1 -80 95 0
1 -80 -78 0
1 -80 -100 0
1 -80 91 0
1 80 -160 0
1 80 -113 0
1 -80 -62 0
1 -80 98 0
1 -80 161 0
1 -80 -102 0
1 -82 -159 0
1 -82 59 0
1 82 -162 0
1 82 163 0
1 82 151 0
1 -82 -100 0
1 -82 91 0
1 -82 84 0
1 -82 164 0
1 82 152 0
1 -82 -102 0
1 82 -92 0
1 -84 -165 0
1 -84 -82 0
1 84 -162 0
1 -84 -151 0
1 84 -100 0
1 84 -87 0
1 84 160 0
1 -84 164 0
1 -84 -152 0
1 84 -102 0
1 -84 -88 0
1 84 -92 0
1 95 -22 0
1 95 -41 0
1 95 80 0
1 -95 78 0
1 95 151 0
1 95 90 0
1 95 -158 0
1 95 23 0
1 -95 -19 0
1 -95 -98 0
1 95 -93 0
1 -95 -29 0
1 -98 -22 0
1 -98 -41 0
1 -98 95 0
1 98 78 0
1 -98 -90 0
1 -98 158 0
1 98 -23 0
1 98 107 0
1 -98 -80 0
1 -98 -152 0
1 -98 -93 0
1 111 166 0
1 111 -41 0
1 -111 -109 0
1 111 -78 0
1 111 -90 0
1 -111 -158 0
1 -111 -101 0
1 111 -97 0
1 -111 40 0
1 111 80 0
1 111 93 0
1 -111 -89 0
1 -111 103 0
1 -113 41 0
1 -113 -111 0
1 113 78 0
1 -113 90 0
1 -113 -101 0
1 113 97 0
1 -113 110 0
1 -113 164 0
1 -113 80 0
1 113 93 0
1 -113 89 0
1 113 -103 0
1 158 -167 0
1 158 104 0
1 158 111 0
1 -158 -95 0
1 -158 86 0
1 158 168 0
1 158 -169 0
1 158 -119 0
1 -158 106 0
1 158 113 0
1 158 -98 0
1 158 102 0
1 158 89 0
1 89 167 0
1 89 118 0
1 -89 104 0
1 -89 111 0
1 89 95 0
1 89 158 0
1 89 169 0
1 89 -119 0
1 -89 106 0
1 -89 -98 0
1 -89 102 0
1 89 -75 0
1 -89 -170 0
1 90 167 0
1 90 171 0
1 -90 -159 0
1 90 111 0
1 90 93 0
1 90 -95 0
1 90 85 0
1 -90 -172 0
1 -90 169 0
1 -90 160 0
1 90 113 0
1 90 -98 0
1 90 -102 0
1 -93 167 0
1 -93 171 0
1 93 -159 0
1 -93 -111 0
1 93 95 0
1 -93 100 0
1 93 -90 0
1 -93 160 0
1 -93 113 0
1 -93 -98 0
1 93 -102 0
1 -93 -173 0
1 104 166 0
1 104 -41 0
1 -104 94 0
1 104 52 0
1 -104 -158 0
1 -104 101 0
1 104 -97 0
1 104 -106 0
1 -104 -37 0
1 -104 50 0
1 -104 -89 0
1 104 -103 0
1 -106 -166 0
1 -106 -41 0
1 106 94 0
1 106 52 0
1 -106 -158 0
1 -106 -101 0
1 106 97 0
1 106 40 0
1 106 160 0
1 106 -37 0
1 106 89 0
1 -118 -171 0
1 118 -114 0
1 -118 108 0
1 118 52 0
1 118 158 0
1 -118 101 0
1 -118 -119 0
1 118 -97 0
1 -118 -112 0
1 -118 -50 0
1 -118 89 0
1 118 103 0
1 -119 -166 0
1 119 -118 0
1 119 -114 0
1 119 52 0
1 -119 158 0
1 119 -101 0
1 -119 174 0
1 -119 -97 0
1 -119 175 0
1 -119 -50 0
1 119 -89 0
1 119 -103 0
1 -97 166 0
1 97 118 0
1 -97 104 0
1 -97 176 0
1 97 -177 0
1 97 116 0
1 97 106 0
1 97 113 0
1 -97 178 0
1 97 179 0
1 -166 115 0
1 -166 -22 0
1 -166 -104 0
1 166 -111 0
1 -166 177 0
1 166 -116 0
1 166 119 0
1 -166 97 0
1 166 -106 0
1 166 -113 0
1 166 178 0
1 -166 179 0
1 -101 -167 0
1 101 -118 0
1 -101 104 0
1 101 -176 0
1 101 180 0
1 -101 23 0
1 101 169 0
1 -101 -119 0
1 -101 -106 0
1 101 113 0
1 101 -178 0
1 -101 -181 0
1 -103 167 0
1 103 118 0
1 -103 -104 0
1 103 111 0
1 -103 176 0
1 -103 169 0
1 -103 119 0
1 103 101 0
1 103 113 0
1 -103 178 0
1 -103 29 0
1 -103 181 0
1 115 -167 0
1 -115 -166 0
1 -115 -114 0
1 115 108 0
1 115 -52 0
1 115 48 0
1 -115 -116 0
1 115 -97 0
1 115 -112 0
1 115 175 0
1 115 -50 0
1 -116 115 0
1 -116 -166 0
1 116 -114 0
1 -116 -169 0
1 116 97 0
1 116 -112 0
1 116 -175 0
1 116 -50 0
1 -116 46 0
1 -179 166 0
1 179 -114 0
1 179 108 0
1 -179 -121 0
1 179 -182 0
1 179 -177 0
1 -179 97 0
1 179 112 0
1 179 -175 0
1 177 -166 0
1 177 114 0
1 -177 108 0
1 177 -121 0
1 -177 182 0
1 177 -112 0
1 177 -175 0
1 177 117 0
1 175 -115 0
1 -175 -118 0
1 -175 108 0
1 175 -183 0
1 -175 -177 0
1 -175 116 0
1 -175 -119 0
1 175 -37 0
1 175 -184 0
1 175 -179 0
1 -108 115 0
1 -108 118 0
1 -108 94 0
1 -108 183 0
1 -108 185 0
1 108 -177 0
1 -108 116 0
1 -108 -119 0
1 -108 -175 0
1 -108 186 0
1 -108 184 0
1 -108 179 0
1 112 115 0
1 -112 176 0
1 112 -177 0
1 -112 -116 0
1 112 -119 0
1 112 -40 0
1 112 -178 0
1 112 179 0
1 114 -115 0
1 -114 187 0
1 114 176 0
1 114 -177 0
1 114 116 0
1 114 -119 0
1 -114 -178 0
1 -114 -179 0
1 184 121 0
1 184 -182 0
1 184 -185 0
1 -184 120 0
1 184 117 0
1 -184 178 0
1 -185 -108 0
1 185 121 0
1 -185 182 0
1 185 176 0
1 185 -175 0
1 185 -120 0
1 -186 108 0
1 -186 -183 0
1 -186 182 0
1 -186 -175 0
1 -186 120 0
1 -186 -117 0
1 183 -117 0
1 -183 -108 0
1 -183 -121 0
1 -183 175 0
1 -183 186 0
1 117 -183 0
1 -117 182 0
1 -117 -185 0
1 -117 -177 0
1 117 46 0
1 -117 -186 0
1 -117 184 0
1 117 179 0
1 -182 117 0
1 -182 48 0
1 182 -183 0
1 182 -185 0
1 -182 -177 0
1 -182 -186 0
1 -182 184 0
1 182 -179 0
1 120 121 0
1 120 -183 0
1 120 -185 0
1 120 177 0
1 120 -184 0
1 -120 -179 0
1 121 52 0
1 -121 183 0
1 -121 185 0
1 121 -186 0
1 -139 138 0
1 139 134 0
1 139 132 0
1 -139 127 0
1 -139 -128 0
1 139 -137 0
1 -139 -79 0
1 139 -131 0
1 -139 -129 0
1 139 130 0
1 139 -143 0
1 138 -134 0
1 -138 -132 0
1 138 -127 0
1 -138 128 0
1 -138 -137 0
1 -138 139 0
1 138 -133 0
1 138 -131 0
1 138 -129 0
1 -138 130 0
1 -148 134 0
1 -148 -132 0
1 148 -188 0
1 -148 -141 0
1 -148 -137 0
1 -148 91 0
1 148 133 0
1 -148 -131 0
1 -148 -142 0
1 -148 140 0
1 148 149 0
1 -149 -132 0
1 -149 137 0
1 -149 148 0
1 -149 133 0
1 -149 131 0
1 -149 142 0
1 149 140 0
1 149 143 0
1 149 -92 0
1 -131 138 0
1 131 132 0
1 131 156 0
1 -131 144 0
1 -131 189 0
1 131 148 0
1 131 139 0
1 131 -155 0
1 131 -145 0
1 -131 149 0
1 132 138 0
1 132 125 0
1 -132 -190 0
1 132 156 0
1 -132 144 0
1 -132 -148 0
1 -132 -139 0
1 -132 131 0
1 -132 -155 0
1 -132 -145 0
1 132 149 0
1 -133 -138 0
1 133 -134 0
1 -133 148 0
1 -133 139 0
1 133 124 0
1 134 138 0
1 134 -123 0
1 134 -191 0
1 -134 139 0
1 -134 133 0
1 134 149 0
1 -144 136 0
1 144 -69 0
1 -144 132 0
1 144 -188 0
1 -144 -141 0
1 -144 87 0
1 144 -137 0
1 -144 -135 0
1 -144 -73 0
1 144 142 0
1 -144 -145 0
1 -144 -143 0
1 -145 136 0
1 145 132 0
1 -145 188 0
1 -145 -141 0
1 -145 -137 0
1 -145 73 0
1 -145 131 0
1 145 -88 0
1 -145 140 0
1 156 192 0
1 -156 -132 0
1 156 188 0
1 156 -100 0
1 -156 141 0
1 -156 150 0
1 156 146 0
1 -156 73 0
1 156 -155 0
1 -156 -140 0
1 155 69 0
1 155 132 0
1 155 -141 0
1 155 150 0
1 -155 146 0
1 -155 -131 0
1 -155 102 0
1 155 -142 0
1 -155 147 0
1 -140 151 0
1 -140 -156 0
1 140 -141 0
1 -140 -144 0
1 140 -148 0
1 140 -193 0
1 140 164 0
1 140 152 0
1 140 155 0
1 -140 130 0
1 140 194 0
1 140 149 0
1 141 195 0
1 141 -162 0
1 -141 151 0
1 -141 128 0
1 -141 -196 0
1 -141 144 0
1 -141 -148 0
1 141 -193 0
1 141 -164 0
1 -141 -152 0
1 -141 155 0
1 -141 140 0
1 -141 145 0
1 141 149 0
1 142 188 0
1 142 156 0
1 142 144 0
1 -142 129 0
1 -142 -193 0
1 142 -155 0
1 142 -197 0
1 -142 -145 0
1 -142 -149 0
1 188 -195 0
1 188 -156 0
1 188 -198 0
1 188 -148 0
1 -188 -142 0
1 188 193 0
1 188 155 0
1 188 -145 0
1 -188 149 0
1 151 192 0
1 -151 -69 0
1 -151 66 0
1 151 -150 0
1 -151 -146 0
1 -151 67 0
1 151 -84 0
1 151 140 0
1 -151 -147 0
1 152 -69 0
1 152 82 0
1 -152 151 0
1 -152 141 0
1 -152 150 0
1 -152 -146 0
1 -152 -73 0
1 152 84 0
1 152 98 0
1 -152 140 0
1 152 -147 0
1 162 192 0
1 162 -154 0
1 -162 199 0
1 -162 -141 0
1 -162 -150 0
1 162 146 0
1 -162 153 0
1 -162 -84 0
1 -162 -164 0
1 -162 147 0
1 164 -192 0
1 164 199 0
1 -164 82 0
1 -164 -162 0
1 -164 -141 0
1 164 150 0
1 164 -146 0
1 164 157 0
1 -164 153 0
1 -164 -113 0
1 164 -140 0
1 -164 -147 0
1 192 136 0
1 -192 -200 0
1 -192 -171 0
1 -192 201 0
1 192 159 0
1 192 162 0
1 192 151 0
1 192 156 0
1 -192 -146 0
1 192 -202 0
1 192 174 0
1 192 160 0
1 192 164 0
1 -192 152 0
1 -192 155 0
1 146 200 0
1 -146 159 0
1 146 162 0
1 -146 135 0
1 -146 -202 0
1 -146 174 0
1 -146 -203 0
1 146 160 0
1 -146 -164 0
1 -146 -152 0
1 -146 -155 0
1 147 204 0
1 -147 200 0
1 147 -195 0
1 147 151 0
1 147 156 0
1 147 -202 0
1 -147 205 0
1 147 -193 0
1 147 -164 0
1 -147 -152 0
1 147 155 0
1 147 -143 0
1 -150 -195 0
1 -150 -162 0
1 150 151 0
1 -150 -156 0
1 150 -206 0
1 -150 -202 0
1 150 193 0
1 150 152 0
1 -150 155 0
1 150 147 0
1 -159 -192 0
1 159 104 0
1 -159 82 0
1 -159 -199 0
1 -159 78 0
1 -159 146 0
1 -159 -157 0
1 -159 -160 0
1 -159 153 0
1 -159 84 0
1 -159 -80 0
1 160 192 0
1 160 -154 0
1 -160 -159 0
1 -160 82 0
1 160 78 0
1 -160 -90 0
1 -160 -146 0
1 -160 -106 0
1 -160 -157 0
1 160 -193 0
1 160 -84 0
1 -160 80 0
1 171 -118 0
1 -171 -207 0
1 171 154 0
1 171 -199 0
1 -171 163 0
1 -171 -208 0
1 -171 -90 0
1 -171 146 0
1 -171 174 0
1 -171 153 0
1 171 165 0
1 171 -161 0
1 171 -93 0
1 -174 192 0
1 174 154 0
1 -174 199 0
1 174 -163 0
1 -174 -208 0
1 174 -90 0
1 174 146 0
1 174 -119 0
1 -174 -205 0
1 174 157 0
1 -174 -153 0
1 174 165 0
1 -174 -161 0
1 -174 -93 0
1 199 -167 0
1 199 -171 0
1 199 159 0
1 -199 -66 0
1 -199 -162 0
1 -199 -209 0
1 -199 180 0
1 -199 174 0
1 199 160 0
1 199 -153 0
1 -199 164 0
1 199 181 0
1 -153 -167 0
1 153 171 0
1 153 -199 0
1 -153 -162 0
1 153 180 0
1 -153 169 0
1 153 160 0
1 -153 164 0
1 153 181 0
1 -154 210 0
1 154 200 0
1 154 -171 0
1 154 -69 0
1 154 159 0
1 -154 162 0
1 154 -211 0
1 -154 -202 0
1 -154 157 0
1 154 164 0
1 157 210 0
1 -157 -200 0
1 -157 -171 0
1 157 -154 0
1 -157 162 0
1 -157 209 0
1 -157 -211 0
1 -157 -202 0
1 -157 174 0
1 -157 73 0
1 -157 164 0
1 167 -115 0
1 -167 -200 0
1 -167 199 0
1 167 -163 0
1 167 208 0
1 167 -90 0
1 -167 -158 0
1 -167 169 0
1 167 -101 0
1 167 -153 0
1 167 161 0
1 167 93 0
1 -167 103 0
1 -169 199 0
1 169 -90 0
1 169 -158 0
1 169 -153 0
1 169 161 0
1 -169 -93 0
1 -169 -89 0
1 181 -210 0
1 181 199 0
1 181 163 0
1 181 -208 0
1 -181 168 0
1 -181 -153 0
1 181 165 0
1 -181 161 0
1 181 -173 0
1 181 170 0
1 -181 -179 0
1 -181 -103 0
1 -180 -163 0
1 -180 208 0
1 -180 -181 0
1 180 172 0
1 180 101 0
1 180 153 0
1 180 -161 0
1 -180 -173 0
1 180 -170 0
1 180 103 0
1 -208 167 0
1 208 -161 0
1 208 -78 0
1 -208 187 0
1 208 180 0
1 208 -174 0
1 -208 -212 0
1 -208 -178 0
1 -208 181 0
1 161 171 0
1 161 187 0
1 -161 -208 0
1 161 180 0
1 -161 169 0
1 161 174 0
1 161 -80 0
1 -161 -178 0
1 163 167 0
1 -163 82 0
1 163 213 0
1 -163 209 0
1 -163 -180 0
1 163 169 0
1 163 174 0
1 163 -165 0
1 -163 214 0
1 163 -181 0
1 165 167 0
1 -165 171 0
1 -165 163 0
1 165 -213 0
1 165 -209 0
1 165 180 0
1 -165 -169 0
1 -165 -174 0
1 -165 -84 0
1 -165 181 0
1 178 166 0
1 -178 114 0
1 178 -208 0
1 178 172 0
1 178 -168 0
1 178 101 0
1 178 161 0
1 -178 -173 0
1 -178 184 0
1 178 -170 0
1 -176 166 0
1 176 -114 0
1 176 185 0
1 -176 172 0
1 -176 101 0
1 -176 97 0
1 -176 112 0
1 -176 -161 0
1 176 173 0
1 176 -178 0
1 176 -103 0
1 -212 114 0
1 212 -187 0
1 212 -208 0
1 212 172 0
1 -212 168 0
1 212 112 0
1 -212 -161 0
1 -212 -173 0
1 212 -214 0
1 -212 -170 0
1 187 -114 0
1 -187 -183 0
1 -187 208 0
1 187 -213 0
1 -187 -172 0
1 187 173 0
1 187 168 0
1 187 -112 0
1 187 -161 0
1 187 -212 0
1 -187 -170 0
1 168 -187 0
1 -168 -170 0
1 -168 212 0
1 168 178 0
1 -168 181 0
1 -170 187 0
1 -170 176 0
1 -170 180 0
1 170 168 0
1 -170 -212 0
1 -170 89 0
1 170 -178 0
1 170 -181 0
1 -172 -187 0
1 -172 -90 0
1 172 -176 0
1 -172 -180 0
1 172 173 0
1 -172 -212 0
1 -172 181 0
1 -173 187 0
1 -173 -176 0
1 173 -172 0
1 -173 180 0
1 -173 93 0
1 173 212 0
1 173 -178 0
1 -173 181 0
1 195 -159 0
1 -195 -188 0
1 -195 -150 0
1 -195 193 0
1 -195 -215 0
1 -195 -189 0
1 195 -142 0
1 -195 140 0
1 -193 -195 0
1 -193 190 0
1 193 188 0
1 193 141 0
1 -193 150 0
1 -193 160 0
1 193 215 0
1 193 189 0
1 193 142 0
1 193 140 0
1 207 171 0
1 -207 -191 0
1 207 -198 0
1 -207 -196 0
1 -207 205 0
1 207 215 0
1 -207 189 0
1 -207 197 0
1 -207 -194 0
1 -207 -147 0
1 -205 207 0
1 -205 191 0
1 -205 196 0
1 -205 150 0
1 205 174 0
1 205 -189 0
1 -205 -197 0
1 205 194 0
1 205 147 0
1 189 -210 0
1 189 -200 0
1 189 207 0
1 189 -195 0
1 189 -190 0
1 189 -211 0
1 -189 202 0
1 -189 -205 0
1 -189 -193 0
1 -190 207 0
1 -190 195 0
1 190 211 0
1 190 -202 0
1 190 -193 0
1 -215 -207 0
1 -215 191 0
1 215 -205 0
1 215 193 0
1 -215 133 0
1 191 207 0
1 -191 -195 0
1 -191 -215 0
1 191 -205 0
1 -191 193 0
1 200 -167 0
1 200 -192 0
1 200 -154 0
1 -200 -190 0
1 -200 198 0
1 -200 -196 0
1 200 202 0
1 -200 -157 0
1 200 -189 0
1 200 194 0
1 -200 -147 0
1 -202 192 0
1 -202 -190 0
1 -202 198 0
1 -202 -196 0
1 -202 -150 0
1 202 -169 0
1 -202 146 0
1 -202 157 0
1 202 -197 0
1 -202 194 0
1 202 147 0
1 -210 -204 0
1 -210 -154 0
1 210 190 0
1 210 198 0
1 -210 196 0
1 -210 211 0
1 -210 206 0
1 -210 -203 0
1 210 -157 0
1 210 189 0
1 210 197 0
1 210 -194 0
1 -210 -181 0
1 211 204 0
1 -211 -201 0
1 211 -154 0
1 211 198 0
1 -211 -196 0
1 -211 -180 0
1 211 -206 0
1 211 203 0
1 211 -157 0
1 -211 197 0
1 -194 210 0
1 194 -200 0
1 194 -207 0
1 194 -213 0
1 -194 209 0
1 194 -196 0
1 -194 211 0
1 194 -205 0
1 194 214 0
1 194 140 0
1 -196 -210 0
1 196 200 0
1 196 207 0
1 -196 -213 0
1 -196 141 0
1 196 209 0
1 -196 211 0
1 -196 -202 0
1 196 205 0
1 197 -210 0
1 -197 -200 0
1 197 207 0
1 -197 -198 0
1 -197 -211 0
1 197 -205 0
1 -197 -142 0
1 198 -210 0
1 198 207 0
1 -198 -188 0
1 198 205 0
1 198 -197 0
1 209 204 0
1 -209 -201 0
1 -209 154 0
1 -209 199 0
1 209 -163 0
1 -209 196 0
1 209 203 0
1 209 -157 0
1 -209 153 0
1 209 165 0
1 -209 194 0
1 -214 -204 0
1 -214 201 0
1 -214 163 0
1 -214 -213 0
1 214 196 0
1 -214 -206 0
1 -214 -165 0
1 214 212 0
1 -214 194 0
1 213 -201 0
1 213 -163 0
1 213 187 0
1 213 -206 0
1 213 -203 0
1 -213 165 0
1 -213 -214 0
1 213 194 0
1 201 -210 0
1 -201 192 0
1 201 -209 0
1 201 211 0
1 201 -203 0
1 -201 -214 0
1 203 -210 0
1 203 201 0
1 203 -213 0
1 -203 -211 0
1 203 146 0
1 204 -213 0
1 -204 211 0
1 -204 -206 0
1 204 214 0
1 204 147 0
1 206 210 0
1 206 -204 0
1 -206 -150 0
1 -206 211 0
1 -206 214 0
